 CUST NO.  XCOORD.   YCOORD.    DEMAND   READY TIME  DUE DATE   READY TIME1  DUE DATE2   SERVICE   TIME2
 
1    764  255    0    0   999999
2    303  588    1    0   999999
3    445  722    1    0   999999
4    993  860    1    0   999999
5    34   242    1    0   999999
6    900  18     1    0   999999
7    290  21     1    0   999999
8    395  576    1    0   999999
9    505  589    1    0   999999
10   838  557    1    0   999999
11   756  249    1    0   999999
12   29   221    1    0   999999
13   613  458    1    0   999999
14   43   704    1    0   999999
15   673  83     1    0   999999
16   798  517    1    0   999999
17   218  460    1    0   999999
18   233  231    1    0   999999
19   28   229    1    0   999999
20   306  859    1    0   999999
21   514  953    1    0   999999
22   490  29     1    0   999999
23   310  940    1    0   999999
24   173  549    1    0   999999
25   393  170    1    0   999999
26   378  347    1    0   999999
27   861  232    1    0   999999
28   228  946    1    0   999999
29   868  974    1    0   999999
30   433  194    1    0   999999
31   121  333    1    0   999999
32   510  209    1    0   999999
33   722  711    1    0   999999
34   940  381    1    0   999999
35   703  675    1    0   999999
36   421  188    1    0   999999
37   704  509    1    0   999999
38   797  817    1    0   999999
39   269  548    1    0   999999
40   223  649    1    0   999999
41   344  69     1    0   999999
42   23   386    1    0   999999
43   220  976    1    0   999999
44   744  416    1    0   999999
45   958  5      1    0   999999
46   205  674    1    0   999999
47   809  519    1    0   999999
48   521  393    1    0   999999
49   763  2      1    0   999999
50   968  876    1    0   999999
51   836  433    1    0   999999
52   570  200    1    0   999999
53   830  670    1    0   999999
54   16   14     1    0   999999
55   20   17     1    0   999999
56   502  983    1    0   999999
57   678  545    1    0   999999
58   375  439    1    0   999999
59   561  426    1    0   999999
60   58   298    1    0   999999
61   104  666    1    0   999999
62   25   541    1    0   999999
63   505  485    1    0   999999
64   902  30     1    0   999999
65   570  171    1    0   999999
66   109  625    1    0   999999
67   578  459    1    0   999999
68   606  817    1    0   999999
69   296  500    1    0   999999
70   168  273    1    0   999999
71   325  872    1    0   999999
72   652  789    1    0   999999
73   984  593    1    0   999999
74   771  540    1    0   999999
75   879  37     1    0   999999
76   322  474    1    0   999999
77   321  631    1    0   999999
78   495  449    1    0   999999
79   883  847    1    0   999999
80   357  346    1    0   999999
81   160  705    1    0   999999
82   93   28     1    0   999999
83   177  585    1    0   999999
84   508  779    1    0   999999
85   146  719    1    0   999999
86   56   870    1    0   999999
87   159  527    1    0   999999
88   539  624    1    0   999999
89   108  900    1    0   999999
90   712  455    1    0   999999
91   937  422    1    0   999999
92   887  741    1    0   999999
93   820  963    1    0   999999
94   216  422    1    0   999999
95   861  799    1    0   999999
96   438  496    1    0   999999
97   252  8      1    0   999999
98   784  821    1    0   999999
99   798  414    1    0   999999
100  255  842    1    0   999999
101  642  186    1    0   999999
DEMAND_SECTION 
    0   999999
1    0   
2    1   
3    1   
4    1   
5    1   
6    1   
7    1   
8    1   
9    1   
10   1   
11   1   
12   1   
13   1   
14   1   
15   1   
16   1   
17   1   
18   1   
19   1   
20   1   
21   1   
22   1   
23   1   
24   1   
25   1   
26   1   
27   1   
28   1   
29   1   
30   1   
31   1   
32   1   
33   1   
34   1   
35   1   
36   1   
37   1   
38   1   
39   1   
40   1   
41   1   
42   1   
43   1   
44   1   
45   1   
46   1   
47   1   
48   1   
49   1   
50   1   
51   1   
52   1   
53   1   
54   1   
55   1   
56   1   
57   1   
58   1   
59   1   
60   1   
61   1   
62   1   
63   1   
64   1   
65   1   
66   1   
67   1   
68   1   
69   1   
70   1   
71   1   
72   1   
73   1   
74   1   
75   1   
76   1   
77   1   
78   1   
79   1   
80   1   
81   1   
82   1   
83   1   
84   1   
85   1   
86   1   
87   1   
88   1   
89   1   
90   1   
91   1   
92   1   
93   1   
94   1   
95   1   
96   1   
97   1   
98   1   
99   1   
100  1   
101  1   
